%%% static parameters %%%
timespan = 1;
Fact = [2];
Distr1 = [5];
Distr2 = [10];
Clients_N = [100];
Demand_W = [15];
Lt0 = [4];
Lt1 = [4];
SS_ = [0.85];
DS_D = [8];
K = [200];
MA = [500];
%%% dynamic parameters %%%
lost_ratio_sales_ret_th = 0.3836130432750843;
lost_ratio_sales_ret_w = 68;
lost_ratio_sales_dis_th = 0.534464764930294;
lost_ratio_sales_dis_w = 82;
lost_ratio_sales_fac_th = 0.05479068562213041;
lost_ratio_sales_fac_w = 56;
stock_customer_MA_mean_relative_th = 0.3291545141044454;
stock_customer_MA_mean_relative_w = 34;
stock_distributor_MA_mean_relative_th = 0.7520009254204697;
stock_distributor_MA_mean_relative_w = 22;
stock_retailer_MA_mean_relative_th = 0.6749840484654774;
stock_retailer_MA_mean_relative_w = 40;
stock_factory_MA_mean_relative_th = 0.042546420294220844;
stock_factory_MA_mean_relative_w = 11;
